c CNF file corresponding to a (partial) station packing problem.
p cnf 2792 198
1 2 3 4 5 6 7 8 9 10 11 12 13 14 0
-1 -2 0
-1 -3 0
-1 -4 0
-1 -5 0
-1 -6 0
-1 -7 0
-1 -8 0
-1 -9 0
-1 -10 0
-1 -11 0
-1 -12 0
-1 -13 0
-1 -14 0
-2 -3 0
-2 -4 0
-2 -5 0
-2 -6 0
-2 -7 0
-2 -8 0
-2 -9 0
-2 -10 0
-2 -11 0
-2 -12 0
-2 -13 0
-2 -14 0
-3 -4 0
-3 -5 0
-3 -6 0
-3 -7 0
-3 -8 0
-3 -9 0
-3 -10 0
-3 -11 0
-3 -12 0
-3 -13 0
-3 -14 0
-4 -5 0
-4 -6 0
-4 -7 0
-4 -8 0
-4 -9 0
-4 -10 0
-4 -11 0
-4 -12 0
-4 -13 0
-4 -14 0
-5 -6 0
-5 -7 0
-5 -8 0
-5 -9 0
-5 -10 0
-5 -11 0
-5 -12 0
-5 -13 0
-5 -14 0
-6 -7 0
-6 -8 0
-6 -9 0
-6 -10 0
-6 -11 0
-6 -12 0
-6 -13 0
-6 -14 0
-7 -8 0
-7 -9 0
-7 -10 0
-7 -11 0
-7 -12 0
-7 -13 0
-7 -14 0
-8 -9 0
-8 -10 0
-8 -11 0
-8 -12 0
-8 -13 0
-8 -14 0
-9 -10 0
-9 -11 0
-9 -12 0
-9 -13 0
-9 -14 0
-10 -11 0
-10 -12 0
-10 -13 0
-10 -14 0
-11 -12 0
-11 -13 0
-11 -14 0
-12 -13 0
-12 -14 0
-13 -14 0
2778 2779 2780 2781 2782 2783 2784 2785 2786 2787 2788 2789 2790 2791 2792 0
-2778 -2779 0
-2778 -2780 0
-2778 -2781 0
-2778 -2782 0
-2778 -2783 0
-2778 -2784 0
-2778 -2785 0
-2778 -2786 0
-2778 -2787 0
-2778 -2788 0
-2778 -2789 0
-2778 -2790 0
-2778 -2791 0
-2778 -2792 0
-2779 -2780 0
-2779 -2781 0
-2779 -2782 0
-2779 -2783 0
-2779 -2784 0
-2779 -2785 0
-2779 -2786 0
-2779 -2787 0
-2779 -2788 0
-2779 -2789 0
-2779 -2790 0
-2779 -2791 0
-2779 -2792 0
-2780 -2781 0
-2780 -2782 0
-2780 -2783 0
-2780 -2784 0
-2780 -2785 0
-2780 -2786 0
-2780 -2787 0
-2780 -2788 0
-2780 -2789 0
-2780 -2790 0
-2780 -2791 0
-2780 -2792 0
-2781 -2782 0
-2781 -2783 0
-2781 -2784 0
-2781 -2785 0
-2781 -2786 0
-2781 -2787 0
-2781 -2788 0
-2781 -2789 0
-2781 -2790 0
-2781 -2791 0
-2781 -2792 0
-2782 -2783 0
-2782 -2784 0
-2782 -2785 0
-2782 -2786 0
-2782 -2787 0
-2782 -2788 0
-2782 -2789 0
-2782 -2790 0
-2782 -2791 0
-2782 -2792 0
-2783 -2784 0
-2783 -2785 0
-2783 -2786 0
-2783 -2787 0
-2783 -2788 0
-2783 -2789 0
-2783 -2790 0
-2783 -2791 0
-2783 -2792 0
-2784 -2785 0
-2784 -2786 0
-2784 -2787 0
-2784 -2788 0
-2784 -2789 0
-2784 -2790 0
-2784 -2791 0
-2784 -2792 0
-2785 -2786 0
-2785 -2787 0
-2785 -2788 0
-2785 -2789 0
-2785 -2790 0
-2785 -2791 0
-2785 -2792 0
-2786 -2787 0
-2786 -2788 0
-2786 -2789 0
-2786 -2790 0
-2786 -2791 0
-2786 -2792 0
-2787 -2788 0
-2787 -2789 0
-2787 -2790 0
-2787 -2791 0
-2787 -2792 0
-2788 -2789 0
-2788 -2790 0
-2788 -2791 0
-2788 -2792 0
-2789 -2790 0
-2789 -2791 0
-2789 -2792 0
-2790 -2791 0
-2790 -2792 0
-2791 -2792 0
